Set parameter TokenServer to value "hpc-licenses.hpcc.usc.edu"
Set parameter TimeLimit to value 3600
Gurobi Optimizer version 9.5.1 build v9.5.1rc2 (linux64)
Thread count: 20 physical cores, 20 logical processors, using up to 20 threads
Optimize a model with 6007 rows, 4529 columns and 24534 nonzeros
Model fingerprint: 0xa772b3e0
Variable types: 4506 continuous, 23 integer (23 binary)
Coefficient statistics:
  Matrix range     [1e+00, 1e+00]
  Objective range  [5e-03, 1e+00]
  Bounds range     [1e+00, 1e+00]
  RHS range        [1e+00, 4e+01]
Presolve removed 1514 rows and 1511 columns
Presolve time: 0.06s
Presolved: 4493 rows, 3018 columns, 21993 nonzeros
Variable types: 2998 continuous, 20 integer (20 binary)
Found heuristic solution: objective 256.2357991

Root relaxation: objective 2.589480e+02, 2120 iterations, 0.07 seconds (0.08 work units)

    Nodes    |    Current Node    |     Objective Bounds      |     Work
 Expl Unexpl |  Obj  Depth IntInf | Incumbent    BestBd   Gap | It/Node Time

     0     0  258.94797    0    3  256.23580  258.94797  1.06%     -    0s
     0     0  258.84374    0    4  256.23580  258.84374  1.02%     -    0s
     0     0  258.84063    0    4  256.23580  258.84063  1.02%     -    0s
H    0     0                     258.5858189  258.76996  0.07%     -    0s
     0     0  258.58582    0    6  258.58582  258.58582  0.00%     -    0s

Cutting planes:
  Gomory: 4
  MIR: 71
  Flow cover: 6
  RLT: 9

Explored 1 nodes (2744 simplex iterations) in 0.40 seconds (0.31 work units)
Thread count was 20 (of 20 available processors)

Solution count 2: 258.586 256.236 

Optimal solution found (tolerance 1.00e-04)
Best objective 2.585858188853e+02, best bound 2.585858188853e+02, gap 0.0000%



#########node  1
V1.9
#########node  2
0.24528301886792453,0.7547169811320755
#########node  3
1.0,0.0


Total Solving Time 0.838564395904541
obj value 258.58581888528573
Policy Regret train (Sum) 1.515319924254638
Best Treatment Found train (%) 88.8
treatment classification acc train (%) 46.0
Policy Regret test (Sum) 145.29074060878332
Best Treatment Found test (%) 59.919999999999995
treatment classification acc test (%) 44.9
